c Command line: hgen8 175 20
p cnf 175 269
37 134 58 32 0
63 22 89 169 0
59 2 135 41 0
50 11 100 144 0
29 79 65 43 0
155 31 131 23 0
45 28 21 113 0
141 93 20 110 0
1 36 53 6 0
105 146 133 172 0
174 95 145 72 0
40 161 167 80 0
162 152 96 170 0
101 7 127 99 0
13 109 121 140 0
10 12 125 46 0
60 16 118 139 0
122 149 123 124 0
164 112 70 55 0
117 137 68 106 0
97 143 42 15 0
115 171 126 148 0
158 73 116 26 0
119 19 52 18 0
92 108 9 56 0
44 77 69 54 0
166 173 154 82 0
64 98 86 78 0
168 151 57 66 0
111 35 103 132 0
25 157 4 90 0
71 163 14 38 0
91 85 84 83 0
27 159 120 5 0
87 130 175 107 0
114 61 47 74 0
-1 -2 0
-1 -4 0
-1 -5 0
-2 -4 0
-2 -5 0
-4 -5 0
-6 -7 0
-6 -9 0
-6 -10 0
-7 -9 0
-7 -10 0
-9 -10 0
-11 -12 0
-11 -13 0
-11 -14 0
-11 -15 0
-12 -13 0
-12 -14 0
-12 -15 0
-13 -14 0
-13 -15 0
-14 -15 0
-16 -18 0
-16 -19 0
-16 -20 0
-18 -19 0
-18 -20 0
-19 -20 0
-21 -22 0
-21 -23 0
-21 -25 0
-22 -23 0
-22 -25 0
-23 -25 0
-26 -27 0
-26 -28 0
-26 -29 0
-27 -28 0
-27 -29 0
-28 -29 0
-31 -32 0
-31 -35 0
-32 -35 0
-36 -37 0
-36 -38 0
-36 -40 0
-37 -38 0
-37 -40 0
-38 -40 0
-41 -42 0
-41 -43 0
-41 -44 0
-41 -45 0
-42 -43 0
-42 -44 0
-42 -45 0
-43 -44 0
-43 -45 0
-44 -45 0
-46 -47 0
-46 -50 0
-47 -50 0
-52 -53 0
-52 -54 0
-52 -55 0
-53 -54 0
-53 -55 0
-54 -55 0
-56 -57 0
-56 -58 0
-56 -59 0
-56 -60 0
-57 -58 0
-57 -59 0
-57 -60 0
-58 -59 0
-58 -60 0
-59 -60 0
-61 -63 0
-61 -64 0
-61 -65 0
-63 -64 0
-63 -65 0
-64 -65 0
-66 -68 0
-66 -69 0
-66 -70 0
-68 -69 0
-68 -70 0
-69 -70 0
-71 -72 0
-71 -73 0
-71 -74 0
-72 -73 0
-72 -74 0
-73 -74 0
-77 -78 0
-77 -79 0
-77 -80 0
-78 -79 0
-78 -80 0
-79 -80 0
-82 -83 0
-82 -84 0
-82 -85 0
-83 -84 0
-83 -85 0
-84 -85 0
-86 -87 0
-86 -89 0
-86 -90 0
-87 -89 0
-87 -90 0
-89 -90 0
-91 -92 0
-91 -93 0
-91 -95 0
-92 -93 0
-92 -95 0
-93 -95 0
-96 -97 0
-96 -98 0
-96 -99 0
-96 -100 0
-97 -98 0
-97 -99 0
-97 -100 0
-98 -99 0
-98 -100 0
-99 -100 0
-101 -103 0
-101 -105 0
-103 -105 0
-106 -107 0
-106 -108 0
-106 -109 0
-106 -110 0
-107 -108 0
-107 -109 0
-107 -110 0
-108 -109 0
-108 -110 0
-109 -110 0
-111 -112 0
-111 -113 0
-111 -114 0
-111 -115 0
-112 -113 0
-112 -114 0
-112 -115 0
-113 -114 0
-113 -115 0
-114 -115 0
-116 -117 0
-116 -118 0
-116 -119 0
-116 -120 0
-117 -118 0
-117 -119 0
-117 -120 0
-118 -119 0
-118 -120 0
-119 -120 0
-121 -122 0
-121 -123 0
-121 -124 0
-121 -125 0
-122 -123 0
-122 -124 0
-122 -125 0
-123 -124 0
-123 -125 0
-124 -125 0
-126 -127 0
-126 -130 0
-127 -130 0
-131 -132 0
-131 -133 0
-131 -134 0
-131 -135 0
-132 -133 0
-132 -134 0
-132 -135 0
-133 -134 0
-133 -135 0
-134 -135 0
-137 -139 0
-137 -140 0
-139 -140 0
-141 -143 0
-141 -144 0
-141 -145 0
-143 -144 0
-143 -145 0
-144 -145 0
-146 -148 0
-146 -149 0
-148 -149 0
-151 -152 0
-151 -154 0
-151 -155 0
-152 -154 0
-152 -155 0
-154 -155 0
-157 -158 0
-157 -159 0
-158 -159 0
-161 -162 0
-161 -163 0
-161 -164 0
-162 -163 0
-162 -164 0
-163 -164 0
-166 -167 0
-166 -168 0
-166 -169 0
-166 -170 0
-167 -168 0
-167 -169 0
-167 -170 0
-168 -169 0
-168 -170 0
-169 -170 0
-171 -172 0
-171 -173 0
-171 -174 0
-171 -175 0
-172 -173 0
-172 -174 0
-172 -175 0
-173 -174 0
-173 -175 0
-174 -175 0
